32 41 362
41 5 714
5 13 723
13 51 644
51 37 590
37 35 659
35 24 296
24 50 868
50 20 763
20 7 846
7 40 1176
40 43 1279
43 3 1096
3 6 385
6 28 404
28 55 487
55 26 397
26 49 560
49 23 1461
23 53 388
53 54 624
54 34 401
34 22 1005
22 10 117
10 9 803
9 14 471
14 12 816
12 47 1082
47 30 944
30 4 380
4 18 606
18 42 2089
42 33 4807
33 1 7621
1 27 4123
27 31 4460
31 25 299
25 11 545
11 45 436
45 2 787
2 52 598
52 15 631
15 16 556
16 39 451
39 36 503
36 46 402
46 29 1012
29 21 516
21 17 638
17 48 415
48 19 897
19 44 1282
44 38 690
38 8 368
8 32 678
